(set-logic ALL)
(set-option :produce-models true)

;; helper / uninterpreted declarations for predicates used by encoding
(declare-fun in (String (Array String Bool)) Bool)
(declare-fun add_to_set (String String) Bool)
(declare-fun not_empty (String) Bool)

(declare-fun authenticated (String) Bool)
(declare-fun token_present (String) Bool)
(declare-fun cart_contains (String String) Bool)
(declare-fun order_recorded (String String) Bool)
(declare-fun result_is_restaurant_list () Bool)
(declare-fun result_is_menu () Bool)
(declare-fun result_is_cart () Bool)
(declare-fun review_added () Bool)

;; Variable declarations (String type)
(declare-fun v1 () String)
(declare-fun v2 () String)
(declare-fun v3 () String)
(declare-fun v4 () String)
(declare-fun v5 () String)
(declare-fun v6 () String)
(declare-fun v7 () String)
(declare-fun v8 () String)
(declare-fun v9 () String)
(declare-fun v10 () String)
(declare-fun v11 () String)
(declare-fun v12 () String)
(declare-fun v13 () String)
(declare-fun v14 () String)
(declare-fun v15 () String)
(declare-fun v16 () String)
(declare-fun v17 () String)
(declare-fun v18 () String)

;; Map declarations (Array String String/Bool)
; Map: T
(declare-const Dom_T (Array String Bool))
(declare-const Val_T (Array String String))

; Map: U
(declare-const Dom_U (Array String Bool))
(declare-const Val_U (Array String String))

;; Domain arrays left unconstrained initially

(assert (! (= v1 "C") :named c1))
(assert (! (= v2 "A") :named c2))
(assert (! (= v3 "E") :named c3))
(assert (! (= v4 "B") :named c4))
(assert (! (= v5 "D") :named c5))
(assert (! (not_registered v2) :named c6))
(assert (! (registered v2) :named c7))
(assert (! (= v6 "A") :named c8))
(assert (! (= v7 "B") :named c9))
(assert (! (registered v6) :named c10))
(assert (! (authenticated v6) :named c11))
(assert (! (= v8 "B") :named c12))
(assert (! (and (token_present v9)) :named c13))
(assert (! (restaurant_created v8) :named c14))
(assert (! (= v10 "B") :named c15))
(assert (! (and (token_present v11)) :named c16))
(assert (! (menu_contains v10) :named c17))
(assert (! (and (token_present v12)) :named c18))
(assert (! (result_is_order_list) :named c19))
(assert (! (= v13 "C") :named c20))
(assert (! (= v14 "B") :named c21))
(assert (! (and (token_present v15)) :named c22))
(assert (! (order_assigned v13 v14) :named c23))
(assert (! (= v16 "B") :named c24))
(assert (! (= v17 "C") :named c25))
(assert (! (and (token_present v18)) :named c26))
(assert (! (order_status_updated v16 v17) :named c27))

(check-sat)
(get-model)
